Please solve the following SAT Problem encoded in DIMACS format, provide line of thoughts, write your final answer as a single solution at the end of response with header 'answer: ' : 
p cnf 10 50
4 -2 -10 0
4 -5 2 0
3 7 -2 0
10 9 3 0
1 -2 3 0
8 3 -1 0
9 -1 -6 0
5 -6 2 0
7 -1 3 0
-4 3 9 0
-4 3 -2 0
5 -1 9 0
-1 3 -6 0
9 10 3 0
4 3 -6 0
3 -6 10 0
10 -9 8 0
7 8 4 0
10 7 8 0
-6 8 5 0
-6 1 -4 0
8 3 4 0
-1 6 4 0
5 -2 8 0
6 7 3 0
9 -1 7 0
-1 -2 9 0
4 1 -2 0
-1 4 -2 0
-1 5 8 0
-6 10 -1 0
-2 -1 3 0
10 -2 5 0
-6 -3 4 0
8 -2 -9 0
3 5 -2 0
9 1 -6 0
3 9 5 0
-3 5 8 0
-1 9 -4 0
-7 -6 4 0
9 -2 3 0
3 5 -6 0
10 8 -2 0
5 2 3 0
7 -1 3 0
10 5 3 0
8 -1 7 0
-2 8 -6 0
4 7 3 0

